nK = 1100;
nT = 6;
nI = 14;
L = 29;
TT = 277;
np = 1;
nc = 3;
b = [70, 21, 21, 30, 39, 69, 61, 40, 36, 44, 26, 54, 35, 62];
d = [120, 58, 59, 81, 80, 111, 97, 141, 124, 112, 102, 100, 61, 117];
m = [1.6, 2.2, 1.6, 1.5, 1.1, 1.1, 1.8, 2, 1.8, 1.1, 1.2, 2.2, 2, 2.2];
pt = [0.33, 0.33, 0.3, 0.33, 0.29, 0.24];
st = [16.17, 15.51, 15, 14.19, 12.47, 12.96];
arc = {<1, 0, 1, 1, 0, 0, 0, [1, 1, 1, 1, 1, 1]>, <2, 1, 2, 1, 0, 0, 0, [1, 1, 1, 1, 1, 1]>, <3, 2, 3, 1, 0, 0, 0, [1, 1, 1, 1, 1, 1]>, <4, 3, 4, 1, 0, 0, 0, [1, 1, 1, 1, 1, 1]>, <5, 4, 5, 1, 0, 0, 0, [1, 1, 1, 1, 1, 1]>, <6, 5, 6, 1, 0, 0, 0, [1, 1, 1, 1, 1, 1]>, <7, 6, 7, 1, 0, 0, 0, [1, 1, 1, 1, 1, 1]>, <8, 7, 8, 1, 0, 0, 0, [1, 1, 1, 1, 1, 1]>, <9, 8, 9, 1, 0, 0, 0, [1, 1, 1, 1, 1, 1]>, <10, 9, 10, 1, 0, 0, 0, [1, 1, 1, 1, 1, 1]>, <11, 10, 11, 1, 0, 0, 0, [1, 1, 1, 1, 1, 1]>, <12, 11, 12, 1, 0, 0, 0, [1, 1, 1, 1, 1, 1]>, <13, 12, 13, 1, 0, 0, 0, [1, 1, 1, 1, 1, 1]>, <14, 13, 14, 1, 0, 0, 0, [1, 1, 1, 1, 1, 1]>, <15, 14, 15, 1, 0, 0, 0, [1, 1, 1, 1, 1, 1]>, <16, 15, 16, 1, 0, 0, 0, [1, 1, 1, 1, 1, 1]>, <17, 16, 17, 1, 0, 0, 0, [1, 1, 1, 1, 1, 1]>, <18, 17, 18, 1, 0, 0, 0, [1, 1, 1, 1, 1, 1]>, <19, 18, 19, 1, 0, 0, 0, [1, 1, 1, 1, 1, 1]>, <20, 19, 20, 1, 0, 0, 0, [1, 1, 1, 1, 1, 1]>, <21, 20, 21, 1, 0, 0, 0, [1, 1, 1, 1, 1, 1]>, <22, 21, 22, 1, 0, 0, 0, [1, 1, 1, 1, 1, 1]>, <23, 22, 23, 1, 0, 0, 0, [1, 1, 1, 1, 1, 1]>, <24, 23, 24, 1, 0, 0, 0, [1, 1, 1, 1, 1, 1]>, <25, 24, 25, 1, 0, 0, 0, [1, 1, 1, 1, 1, 1]>, <26, 25, 26, 1, 0, 0, 0, [1, 1, 1, 1, 1, 1]>, <27, 26, 27, 1, 0, 0, 0, [1, 1, 1, 1, 1, 1]>, <28, 27, 28, 1, 0, 0, 0, [1, 1, 1, 1, 1, 1]>, <29, 28, 29, 1, 0, 0, 0, [1, 1, 1, 1, 1, 1]>, <30, 4, 11, 7, 1, 0, 1, [1, 1, 0, 0, 0, 0]>, <31, 5, 12, 7, 1, 0, 1, [1, 1, 0, 0, 0, 0]>, <32, 11, 18, 7, 1, 0, 1, [1, 1, 0, 0, 0, 0]>, <33, 12, 19, 7, 1, 0, 1, [1, 1, 0, 0, 0, 0]>, <34, 17, 24, 7, 1, 0, 1, [1, 1, 0, 0, 0, 0]>, <35, 18, 25, 7, 1, 0, 1, [1, 1, 0, 0, 0, 0]>, <36, 19, 26, 7, 1, 0, 1, [1, 1, 0, 0, 0, 0]>, <37, 20, 27, 7, 1, 0, 1, [1, 1, 0, 0, 0, 0]>, <38, 3, 12, 9, 2, 0, 1, [0, 0, 0, 1, 1, 0]>, <39, 4, 13, 9, 2, 0, 1, [0, 0, 0, 1, 1, 0]>, <40, 5, 14, 9, 2, 0, 1, [0, 0, 0, 1, 1, 0]>, <41, 11, 20, 9, 2, 0, 1, [0, 0, 0, 1, 1, 0]>, <42, 12, 21, 9, 2, 0, 1, [0, 0, 0, 1, 1, 0]>, <43, 15, 24, 9, 2, 0, 1, [0, 0, 0, 1, 1, 0]>, <44, 16, 25, 9, 2, 0, 1, [0, 0, 0, 1, 1, 0]>, <45, 17, 26, 9, 2, 0, 1, [0, 0, 0, 1, 1, 0]>, <46, 18, 27, 9, 2, 0, 1, [0, 0, 0, 1, 1, 0]>, <47, 19, 28, 9, 2, 0, 1, [0, 0, 0, 1, 1, 0]>, <48, 20, 29, 9, 2, 0, 1, [0, 0, 0, 1, 1, 0]>, <49, 4, 11, 7, 3, 0, 1, [0, 1, 1, 0, 0, 0]>, <50, 5, 12, 7, 3, 0, 1, [0, 1, 1, 0, 0, 0]>, <51, 11, 18, 7, 3, 0, 1, [0, 1, 1, 0, 0, 0]>, <52, 12, 19, 7, 3, 0, 1, [0, 1, 1, 0, 0, 0]>, <53, 17, 24, 7, 3, 0, 1, [0, 1, 1, 0, 0, 0]>, <54, 18, 25, 7, 3, 0, 1, [0, 1, 1, 0, 0, 0]>, <55, 19, 26, 7, 3, 0, 1, [0, 1, 1, 0, 0, 0]>, <56, 20, 27, 7, 3, 0, 1, [0, 1, 1, 0, 0, 0]>, <57, 4, 12, 8, 4, 0, 0, [1, 1, 0, 0, 0, 0]>, <58, 5, 13, 8, 4, 0, 0, [1, 1, 0, 0, 0, 0]>, <59, 11, 19, 8, 4, 0, 0, [1, 1, 0, 0, 0, 0]>, <60, 12, 20, 8, 4, 0, 0, [1, 1, 0, 0, 0, 0]>, <61, 16, 24, 8, 4, 0, 0, [1, 1, 0, 0, 0, 0]>, <62, 17, 25, 8, 4, 0, 0, [1, 1, 0, 0, 0, 0]>, <63, 18, 26, 8, 4, 0, 0, [1, 1, 0, 0, 0, 0]>, <64, 19, 27, 8, 4, 0, 0, [1, 1, 0, 0, 0, 0]>, <65, 20, 28, 8, 4, 0, 0, [1, 1, 0, 0, 0, 0]>, <66, 1, 12, 11, 5, 0, 0, [0, 0, 0, 1, 1, 0]>, <67, 2, 13, 11, 5, 0, 0, [0, 0, 0, 1, 1, 0]>, <68, 3, 14, 11, 5, 0, 0, [0, 0, 0, 1, 1, 0]>, <69, 4, 15, 11, 5, 0, 0, [0, 0, 0, 1, 1, 0]>, <70, 5, 16, 11, 5, 0, 0, [0, 0, 0, 1, 1, 0]>, <71, 9, 20, 11, 5, 0, 0, [0, 0, 0, 1, 1, 0]>, <72, 10, 21, 11, 5, 0, 0, [0, 0, 0, 1, 1, 0]>, <73, 11, 22, 11, 5, 0, 0, [0, 0, 0, 1, 1, 0]>, <74, 12, 23, 11, 5, 0, 0, [0, 0, 0, 1, 1, 0]>, <75, 13, 24, 11, 5, 0, 0, [0, 0, 0, 1, 1, 0]>, <76, 14, 25, 11, 5, 0, 0, [0, 0, 0, 1, 1, 0]>, <77, 15, 26, 11, 5, 0, 0, [0, 0, 0, 1, 1, 0]>, <78, 16, 27, 11, 5, 0, 0, [0, 0, 0, 1, 1, 0]>, <79, 17, 28, 11, 5, 0, 0, [0, 0, 0, 1, 1, 0]>, <80, 18, 29, 11, 5, 0, 0, [0, 0, 0, 1, 1, 0]>, <81, 1, 12, 11, 6, 0, 1, [0, 0, 0, 1, 1, 0]>, <82, 2, 13, 11, 6, 0, 1, [0, 0, 0, 1, 1, 0]>, <83, 3, 14, 11, 6, 0, 1, [0, 0, 0, 1, 1, 0]>, <84, 4, 15, 11, 6, 0, 1, [0, 0, 0, 1, 1, 0]>, <85, 5, 16, 11, 6, 0, 1, [0, 0, 0, 1, 1, 0]>, <86, 9, 20, 11, 6, 0, 1, [0, 0, 0, 1, 1, 0]>, <87, 10, 21, 11, 6, 0, 1, [0, 0, 0, 1, 1, 0]>, <88, 11, 22, 11, 6, 0, 1, [0, 0, 0, 1, 1, 0]>, <89, 12, 23, 11, 6, 0, 1, [0, 0, 0, 1, 1, 0]>, <90, 13, 24, 11, 6, 0, 1, [0, 0, 0, 1, 1, 0]>, <91, 14, 25, 11, 6, 0, 1, [0, 0, 0, 1, 1, 0]>, <92, 15, 26, 11, 6, 0, 1, [0, 0, 0, 1, 1, 0]>, <93, 16, 27, 11, 6, 0, 1, [0, 0, 0, 1, 1, 0]>, <94, 17, 28, 11, 6, 0, 1, [0, 0, 0, 1, 1, 0]>, <95, 18, 29, 11, 6, 0, 1, [0, 0, 0, 1, 1, 0]>, <96, 0, 12, 12, 7, 0, 0, [0, 0, 0, 1, 1, 0]>, <97, 1, 13, 12, 7, 0, 0, [0, 0, 0, 1, 1, 0]>, <98, 2, 14, 12, 7, 0, 0, [0, 0, 0, 1, 1, 0]>, <99, 3, 15, 12, 7, 0, 0, [0, 0, 0, 1, 1, 0]>, <100, 4, 16, 12, 7, 0, 0, [0, 0, 0, 1, 1, 0]>, <101, 5, 17, 12, 7, 0, 0, [0, 0, 0, 1, 1, 0]>, <102, 8, 20, 12, 7, 0, 0, [0, 0, 0, 1, 1, 0]>, <103, 9, 21, 12, 7, 0, 0, [0, 0, 0, 1, 1, 0]>, <104, 10, 22, 12, 7, 0, 0, [0, 0, 0, 1, 1, 0]>, <105, 11, 23, 12, 7, 0, 0, [0, 0, 0, 1, 1, 0]>, <106, 12, 24, 12, 7, 0, 0, [0, 0, 0, 1, 1, 0]>, <107, 13, 25, 12, 7, 0, 0, [0, 0, 0, 1, 1, 0]>, <108, 14, 26, 12, 7, 0, 0, [0, 0, 0, 1, 1, 0]>, <109, 15, 27, 12, 7, 0, 0, [0, 0, 0, 1, 1, 0]>, <110, 16, 28, 12, 7, 0, 0, [0, 0, 0, 1, 1, 0]>, <111, 17, 29, 12, 7, 0, 0, [0, 0, 0, 1, 1, 0]>, <112, 4, 12, 8, 8, 0, 0, [1, 0, 0, 0, 0, 1]>, <113, 5, 13, 8, 8, 0, 0, [1, 0, 0, 0, 0, 1]>, <114, 11, 19, 8, 8, 0, 0, [1, 0, 0, 0, 0, 1]>, <115, 12, 20, 8, 8, 0, 0, [1, 0, 0, 0, 0, 1]>, <116, 16, 24, 8, 8, 0, 0, [1, 0, 0, 0, 0, 1]>, <117, 17, 25, 8, 8, 0, 0, [1, 0, 0, 0, 0, 1]>, <118, 18, 26, 8, 8, 0, 0, [1, 0, 0, 0, 0, 1]>, <119, 19, 27, 8, 8, 0, 0, [1, 0, 0, 0, 0, 1]>, <120, 20, 28, 8, 8, 0, 0, [1, 0, 0, 0, 0, 1]>, <121, 2, 12, 10, 9, 0, 1, [0, 1, 1, 0, 0, 0]>, <122, 3, 13, 10, 9, 0, 1, [0, 1, 1, 0, 0, 0]>, <123, 4, 14, 10, 9, 0, 1, [0, 1, 1, 0, 0, 0]>, <124, 5, 15, 10, 9, 0, 1, [0, 1, 1, 0, 0, 0]>, <125, 10, 20, 10, 9, 0, 1, [0, 1, 1, 0, 0, 0]>, <126, 11, 21, 10, 9, 0, 1, [0, 1, 1, 0, 0, 0]>, <127, 12, 22, 10, 9, 0, 1, [0, 1, 1, 0, 0, 0]>, <128, 14, 24, 10, 9, 0, 1, [0, 1, 1, 0, 0, 0]>, <129, 15, 25, 10, 9, 0, 1, [0, 1, 1, 0, 0, 0]>, <130, 16, 26, 10, 9, 0, 1, [0, 1, 1, 0, 0, 0]>, <131, 17, 27, 10, 9, 0, 1, [0, 1, 1, 0, 0, 0]>, <132, 18, 28, 10, 9, 0, 1, [0, 1, 1, 0, 0, 0]>, <133, 19, 29, 10, 9, 0, 1, [0, 1, 1, 0, 0, 0]>, <134, 2, 12, 10, 10, 1, 0, [0, 0, 0, 0, 1, 1]>, <135, 3, 13, 10, 10, 1, 0, [0, 0, 0, 0, 1, 1]>, <136, 4, 14, 10, 10, 1, 0, [0, 0, 0, 0, 1, 1]>, <137, 5, 15, 10, 10, 1, 0, [0, 0, 0, 0, 1, 1]>, <138, 10, 20, 10, 10, 1, 0, [0, 0, 0, 0, 1, 1]>, <139, 11, 21, 10, 10, 1, 0, [0, 0, 0, 0, 1, 1]>, <140, 12, 22, 10, 10, 1, 0, [0, 0, 0, 0, 1, 1]>, <141, 14, 24, 10, 10, 1, 0, [0, 0, 0, 0, 1, 1]>, <142, 15, 25, 10, 10, 1, 0, [0, 0, 0, 0, 1, 1]>, <143, 16, 26, 10, 10, 1, 0, [0, 0, 0, 0, 1, 1]>, <144, 17, 27, 10, 10, 1, 0, [0, 0, 0, 0, 1, 1]>, <145, 18, 28, 10, 10, 1, 0, [0, 0, 0, 0, 1, 1]>, <146, 19, 29, 10, 10, 1, 0, [0, 0, 0, 0, 1, 1]>, <147, 1, 12, 11, 11, 0, 0, [1, 0, 0, 0, 0, 1]>, <148, 2, 13, 11, 11, 0, 0, [1, 0, 0, 0, 0, 1]>, <149, 3, 14, 11, 11, 0, 0, [1, 0, 0, 0, 0, 1]>, <150, 4, 15, 11, 11, 0, 0, [1, 0, 0, 0, 0, 1]>, <151, 5, 16, 11, 11, 0, 0, [1, 0, 0, 0, 0, 1]>, <152, 9, 20, 11, 11, 0, 0, [1, 0, 0, 0, 0, 1]>, <153, 10, 21, 11, 11, 0, 0, [1, 0, 0, 0, 0, 1]>, <154, 11, 22, 11, 11, 0, 0, [1, 0, 0, 0, 0, 1]>, <155, 12, 23, 11, 11, 0, 0, [1, 0, 0, 0, 0, 1]>, <156, 13, 24, 11, 11, 0, 0, [1, 0, 0, 0, 0, 1]>, <157, 14, 25, 11, 11, 0, 0, [1, 0, 0, 0, 0, 1]>, <158, 15, 26, 11, 11, 0, 0, [1, 0, 0, 0, 0, 1]>, <159, 16, 27, 11, 11, 0, 0, [1, 0, 0, 0, 0, 1]>, <160, 17, 28, 11, 11, 0, 0, [1, 0, 0, 0, 0, 1]>, <161, 18, 29, 11, 11, 0, 0, [1, 0, 0, 0, 0, 1]>, <162, 3, 12, 9, 12, 0, 0, [1, 0, 0, 0, 0, 1]>, <163, 4, 13, 9, 12, 0, 0, [1, 0, 0, 0, 0, 1]>, <164, 5, 14, 9, 12, 0, 0, [1, 0, 0, 0, 0, 1]>, <165, 11, 20, 9, 12, 0, 0, [1, 0, 0, 0, 0, 1]>, <166, 12, 21, 9, 12, 0, 0, [1, 0, 0, 0, 0, 1]>, <167, 15, 24, 9, 12, 0, 0, [1, 0, 0, 0, 0, 1]>, <168, 16, 25, 9, 12, 0, 0, [1, 0, 0, 0, 0, 1]>, <169, 17, 26, 9, 12, 0, 0, [1, 0, 0, 0, 0, 1]>, <170, 18, 27, 9, 12, 0, 0, [1, 0, 0, 0, 0, 1]>, <171, 19, 28, 9, 12, 0, 0, [1, 0, 0, 0, 0, 1]>, <172, 20, 29, 9, 12, 0, 0, [1, 0, 0, 0, 0, 1]>, <173, 2, 12, 10, 13, 0, 1, [0, 0, 1, 1, 0, 0]>, <174, 3, 13, 10, 13, 0, 1, [0, 0, 1, 1, 0, 0]>, <175, 4, 14, 10, 13, 0, 1, [0, 0, 1, 1, 0, 0]>, <176, 5, 15, 10, 13, 0, 1, [0, 0, 1, 1, 0, 0]>, <177, 10, 20, 10, 13, 0, 1, [0, 0, 1, 1, 0, 0]>, <178, 11, 21, 10, 13, 0, 1, [0, 0, 1, 1, 0, 0]>, <179, 12, 22, 10, 13, 0, 1, [0, 0, 1, 1, 0, 0]>, <180, 14, 24, 10, 13, 0, 1, [0, 0, 1, 1, 0, 0]>, <181, 15, 25, 10, 13, 0, 1, [0, 0, 1, 1, 0, 0]>, <182, 16, 26, 10, 13, 0, 1, [0, 0, 1, 1, 0, 0]>, <183, 17, 27, 10, 13, 0, 1, [0, 0, 1, 1, 0, 0]>, <184, 18, 28, 10, 13, 0, 1, [0, 0, 1, 1, 0, 0]>, <185, 19, 29, 10, 13, 0, 1, [0, 0, 1, 1, 0, 0]>, <186, 3, 12, 9, 14, 0, 0, [0, 0, 1, 1, 0, 0]>, <187, 4, 13, 9, 14, 0, 0, [0, 0, 1, 1, 0, 0]>, <188, 5, 14, 9, 14, 0, 0, [0, 0, 1, 1, 0, 0]>, <189, 11, 20, 9, 14, 0, 0, [0, 0, 1, 1, 0, 0]>, <190, 12, 21, 9, 14, 0, 0, [0, 0, 1, 1, 0, 0]>, <191, 15, 24, 9, 14, 0, 0, [0, 0, 1, 1, 0, 0]>, <192, 16, 25, 9, 14, 0, 0, [0, 0, 1, 1, 0, 0]>, <193, 17, 26, 9, 14, 0, 0, [0, 0, 1, 1, 0, 0]>, <194, 18, 27, 9, 14, 0, 0, [0, 0, 1, 1, 0, 0]>, <195, 19, 28, 9, 14, 0, 0, [0, 0, 1, 1, 0, 0]>, <196, 20, 29, 9, 14, 0, 0, [0, 0, 1, 1, 0, 0]>};
